10	6	3.25
2 5 1 9 3 7 4 2 5 9 6 9 4 1 8 2 6 5 8 6 9
2 4 1 2 3 5 4 9 5 9 3 1 2 3 2 5 4
2 1 3 1 1 1 1
2 5 1 3 2 6 3 1 4 4 5 8 2 3 9 4 4
2 2 2 8 6 6 1 1 5
2 3 1 1 2 5 3 5 5 1 8 3 6 4 1 5 4 6 1
2 1 4 6 3 1 6 3 2 5 1
2 4 2 5 4 6 5 8 6 4 6 1 5 2 6 3 7 4 7 5 6 6 8
2 3 1 9 2 1 5 7 5 1 3 2 3 3 4 4 6 6 3
2 6 1 1 2 4 3 6 4 5 5 5 6 9 1 3 7
